<number of tasks>
28

<cycle time>
324

<task times>
1 70
2 59
3 33
4 6
5 1
6 27
7 17
8 62
9 31
10 53
11 21
12 19
13 108
14 52
15 5
16 8
17 97
18 8
19 47
20 67
21 17
22 8
23 3
24 21
25 107
26 3
27 2
28 72

<precedence relations>
1,2
1,3
1,4
1,5
1,8
1,19
1,21
1,22
1,23
1,24
1,26
2,6
2,17
3,28
4,28
5,28
6,7
7,18
8,9
9,10
10,11
10,12
11,15
12,13
13,14
13,16
14,28
15,28
16,28
17,28
18,28
19,20
20,28
21,28
22,28
23,28
24,25
25,28
26,27
27,28

<setup times forward>
1,3:3
1,4:3
1,22:1
1,23:2
1,24:3
1,26:3
2,3:3
2,4:3
2,6:3
2,9:3
2,10:3
2,11:3
2,12:3
2,13:3
2,14:2
2,15:1
2,16:1
2,17:1
2,22:1
2,23:2
2,24:3
2,25:1
2,26:3
2,27:1
3,2:3
3,5:3
3,7:2
3,8:3
3,14:5
3,15:2
3,16:2
3,17:2
3,18:2
3,19:3
3,20:3
3,21:3
3,22:2
3,23:5
3,25:2
3,27:2
3,28:2
4,2:3
4,5:3
4,7:2
4,8:3
4,14:5
4,15:2
4,16:2
4,17:2
4,18:2
4,19:3
4,20:3
4,21:3
4,22:2
4,23:5
4,25:2
4,27:2
4,28:2
5,3:3
5,4:3
5,6:3
5,7:1
5,9:3
5,10:3
5,11:3
5,12:3
5,13:3
5,14:2
5,15:1
5,16:1
5,17:1
5,18:1
5,22:1
5,23:2
5,24:3
5,25:1
5,26:3
5,27:1
5,28:1
6,5:3
6,7:2
6,8:3
6,14:5
6,15:2
6,16:2
6,17:2
6,19:3
6,20:3
6,21:3
6,22:2
6,23:5
6,25:2
6,27:2
7,3:2
7,4:2
7,5:1
7,8:1
7,9:2
7,10:2
7,11:2
7,12:2
7,13:2
7,14:3
7,19:1
7,20:1
7,21:1
7,23:3
7,24:2
7,26:2
8,3:3
8,4:3
8,6:3
8,7:1
8,9:3
8,17:1
8,18:1
8,22:1
8,23:2
8,24:3
8,25:1
8,26:3
8,27:1
9,2:3
9,5:3
9,7:2
9,17:2
9,18:2
9,19:3
9,20:3
9,21:3
9,22:2
9,23:5
9,25:2
9,27:2
10,2:3
10,5:3
10,7:2
10,17:2
10,18:2
10,19:3
10,20:3
10,21:3
10,22:2
10,23:5
10,25:2
10,27:2
11,2:3
11,5:3
11,7:2
11,14:5
11,15:2
11,16:2
11,17:2
11,18:2
11,19:3
11,20:3
11,21:3
11,22:2
11,23:5
11,25:2
11,27:2
12,2:3
12,5:3
12,7:2
12,15:2
12,17:2
12,18:2
12,19:3
12,20:3
12,21:3
12,22:2
12,23:5
12,25:2
12,27:2
13,2:3
13,5:3
13,7:2
13,14:5
13,15:2
13,16:2
13,17:2
13,18:2
13,19:3
13,20:3
13,21:3
13,22:2
13,23:5
13,25:2
13,27:2
14,2:2
14,3:5
14,4:5
14,5:2
14,6:5
14,7:3
14,11:5
14,15:3
14,16:3
14,17:3
14,18:3
14,19:2
14,20:2
14,21:2
14,22:3
14,24:5
14,25:3
14,26:5
14,27:3
14,28:3
15,2:1
15,3:2
15,4:2
15,5:1
15,6:2
15,12:2
15,13:2
15,14:3
15,19:1
15,20:1
15,21:1
15,23:3
15,24:2
15,26:2
16,2:1
16,3:2
16,4:2
16,5:1
16,6:2
16,11:2
16,14:3
16,19:1
16,20:1
16,21:1
16,23:3
16,24:2
16,26:2
17,3:2
17,4:2
17,5:1
17,6:2
17,8:1
17,9:2
17,10:2
17,11:2
17,12:2
17,13:2
17,14:3
17,19:1
17,20:1
17,21:1
17,23:3
17,24:2
17,26:2
18,3:2
18,4:2
18,5:1
18,8:1
18,9:2
18,10:2
18,11:2
18,12:2
18,13:2
18,14:3
18,19:1
18,20:1
18,21:1
18,23:3
18,24:2
18,26:2
19,3:3
19,4:3
19,6:3
19,7:1
19,9:3
19,10:3
19,11:3
19,12:3
19,13:3
19,14:2
19,15:1
19,16:1
19,17:1
19,18:1
19,22:1
19,23:2
19,24:3
19,25:1
19,26:3
19,27:1
20,3:3
20,4:3
20,6:3
20,7:1
20,9:3
20,10:3
20,11:3
20,12:3
20,13:3
20,14:2
20,15:1
20,16:1
20,17:1
20,18:1
20,22:1
20,23:2
20,24:3
20,25:1
20,26:3
20,27:1
20,28:1
21,3:3
21,4:3
21,6:3
21,7:1
21,9:3
21,10:3
21,11:3
21,12:3
21,13:3
21,14:2
21,15:1
21,16:1
21,17:1
21,18:1
21,22:1
21,23:2
21,24:3
21,25:1
21,26:3
21,27:1
21,28:1
22,2:1
22,3:2
22,4:2
22,5:1
22,6:2
22,8:1
22,9:2
22,10:2
22,11:2
22,12:2
22,13:2
22,14:3
22,19:1
22,20:1
22,21:1
22,23:3
22,24:2
22,26:2
23,2:2
23,3:5
23,4:5
23,5:2
23,6:5
23,7:3
23,8:2
23,9:5
23,10:5
23,11:5
23,12:5
23,13:5
23,15:3
23,16:3
23,17:3
23,18:3
23,19:2
23,20:2
23,21:2
23,22:3
23,24:5
23,25:3
23,26:5
23,27:3
23,28:3
24,2:3
24,5:3
24,7:2
24,8:3
24,14:5
24,15:2
24,16:2
24,17:2
24,18:2
24,19:3
24,20:3
24,21:3
24,22:2
24,23:5
24,25:2
24,27:2
25,2:1
25,3:2
25,4:2
25,5:1
25,6:2
25,8:1
25,9:2
25,10:2
25,11:2
25,12:2
25,13:2
25,14:3
25,19:1
25,20:1
25,21:1
25,23:3
25,26:2
26,2:3
26,5:3
26,7:2
26,8:3
26,14:5
26,15:2
26,16:2
26,17:2
26,18:2
26,19:3
26,20:3
26,21:3
26,22:2
26,23:5
26,25:2
26,27:2
27,2:1
27,3:2
27,4:2
27,5:1
27,6:2
27,8:1
27,9:2
27,10:2
27,11:2
27,12:2
27,13:2
27,14:3
27,19:1
27,20:1
27,21:1
27,23:3
27,24:2

<setup times backward>
2,14:2
2,23:2
3,1:3
3,2:3
3,5:3
3,7:2
3,8:3
3,14:5
3,15:2
3,16:2
3,17:2
3,18:2
3,19:3
3,20:3
3,21:3
3,22:2
3,23:5
3,25:2
3,27:2
4,1:3
4,2:3
4,5:3
4,7:2
4,8:3
4,14:5
4,15:2
4,16:2
4,17:2
4,18:2
4,19:3
4,20:3
4,21:3
4,22:2
4,23:5
4,25:2
4,27:2
5,14:2
5,23:2
6,1:3
6,2:3
6,5:3
6,8:3
6,14:5
6,15:2
6,16:2
6,17:2
6,19:3
6,20:3
6,21:3
6,22:2
6,23:5
6,25:2
6,27:2
7,1:1
7,2:1
7,5:1
7,8:1
7,14:3
7,19:1
7,20:1
7,21:1
7,23:3
8,23:2
9,1:3
9,2:3
9,5:3
9,7:2
9,8:3
9,17:2
9,18:2
9,19:3
9,20:3
9,21:3
9,22:2
9,23:5
9,25:2
9,27:2
10,1:3
10,2:3
10,5:3
10,7:2
10,8:3
10,17:2
10,18:2
10,19:3
10,20:3
10,21:3
10,22:2
10,23:5
10,25:2
10,27:2
11,1:3
11,2:3
11,5:3
11,7:2
11,8:3
11,14:5
11,16:2
11,17:2
11,18:2
11,19:3
11,20:3
11,21:3
11,22:2
11,23:5
11,25:2
11,27:2
12,1:3
12,2:3
12,5:3
12,7:2
12,8:3
12,15:2
12,17:2
12,18:2
12,19:3
12,20:3
12,21:3
12,22:2
12,23:5
12,25:2
12,27:2
13,1:3
13,2:3
13,5:3
13,7:2
13,8:3
13,15:2
13,17:2
13,18:2
13,19:3
13,20:3
13,21:3
13,22:2
13,23:5
13,25:2
13,27:2
15,1:1
15,2:1
15,5:1
15,8:1
15,14:3
15,19:1
15,20:1
15,21:1
15,23:3
16,1:1
16,2:1
16,5:1
16,8:1
16,14:3
16,19:1
16,20:1
16,21:1
16,23:3
17,1:1
17,2:1
17,5:1
17,8:1
17,14:3
17,19:1
17,20:1
17,21:1
17,23:3
18,1:1
18,2:1
18,5:1
18,8:1
18,14:3
18,19:1
18,20:1
18,21:1
18,23:3
19,14:2
19,23:2
20,14:2
20,23:2
21,14:2
21,23:2
22,1:1
22,2:1
22,5:1
22,8:1
22,14:3
22,19:1
22,20:1
22,21:1
22,23:3
24,1:3
24,2:3
24,5:3
24,7:2
24,8:3
24,14:5
24,15:2
24,16:2
24,17:2
24,18:2
24,19:3
24,20:3
24,21:3
24,22:2
24,23:5
24,27:2
25,1:1
25,2:1
25,5:1
25,8:1
25,14:3
25,19:1
25,20:1
25,21:1
25,23:3
26,1:3
26,2:3
26,5:3
26,7:2
26,8:3
26,14:5
26,15:2
26,16:2
26,17:2
26,18:2
26,19:3
26,20:3
26,21:3
26,22:2
26,23:5
26,25:2
27,1:1
27,2:1
27,5:1
27,8:1
27,14:3
27,19:1
27,20:1
27,21:1
27,23:3
28,1:1
28,2:1
28,5:1
28,8:1
28,14:3
28,19:1
28,20:1
28,21:1
28,23:3

<end>

<optimal SALBP-1 value>
4


<rand seed>
467321153

<Lower Bounds>
Lm1=4
Lms1=4
Lm2=0
Lm3=1
Lm4=4
Best=4

<Optimal Stations (Iterations: 10)>
4
